data;

param num_top:=3;

#nodes and edges of the physical network
param n := 10;

set E := (1,2) (1,3) (1,7) (2,4) (2,7) (3,5) (4,8) (5,6) (5,7) (6,7) (6,9) (7,8) (7,9) (8,10) (9,10) ;

#nodes and edges of the virtual networks
set Nl[1] := 6 4 9 3 ;
set Nl[2] := 4 1 3 7 ;
set Nl[3] := 7 2 9 3 6 ;

set El[1] := (4,6) (4,9) (3,9) (3,6) ;
set El[2] := (1,4) (1,3) (3,7) (4,7) (3,4) (1,7) ;
set El[3] := (2,7) (2,9) (3,9) (3,6) (6,7) ;
